sat
(:max-memory          18.55
 :memory              18.10
 :nlsat-conflicts     5
 :nlsat-decisions     4
 :nlsat-learned-added 5
 :nlsat-propagations  59
 :nlsat-stages        9
 :num-allocs          43762
 :rlimit-count        112028
 :time                0.08
 :total-time          0.08)
